NAME : P-n60-k10.744.tour
COMMENT : Cost = 0_744
COMMENT : Found by LKH [Keld Helsgaun] Wed Sep 13 11:55:53 2017
TYPE : TOUR
DIMENSION : 69
TOUR_SECTION
1
30
48
37
60
22
31
69
28
14
55
20
15
36
9
62
33
51
19
25
50
17
61
40
10
26
56
32
11
65
8
54
12
39
59
66
3
29
23
34
7
63
5
53
47
35
68
27
13
41
45
4
18
67
2
44
43
42
57
24
52
64
49
6
38
21
16
58
46
-1
EOF
